
Gurobi 9.0.2 (win64) logging started Sat Oct 10 18:30:57 2020

Changed value of parameter logfile to result\v6.2-20201010T1221\scenario_2030_eff100_cab5000.log
   Prev:   Default: 
Gurobi Optimizer version 9.0.2 build v9.0.2rc0 (win64)
Optimize a model with 1384150 rows, 884815 columns and 3912197 nonzeros
Model fingerprint: 0xec20aa00
Coefficient statistics:
  Matrix range     [1e-07, 5e+05]
  Objective range  [1e+00, 1e+00]
  Bounds range     [0e+00, 0e+00]
  RHS range        [2e-05, 3e+08]
Warning: Model contains large matrix coefficient range
         Consider reformulating model or setting NumericFocus parameter
         to avoid numerical issues.

Concurrent LP optimizer: primal simplex, dual simplex, and barrier
Showing barrier log only...

Presolve removed 1129315 rows and 656241 columns
Presolve time: 4.55s
Presolved: 254835 rows, 342440 columns, 891938 nonzeros

Ordering time: 0.21s

Barrier statistics:
 Dense cols : 9
 AA' NZ     : 8.194e+05
 Factor NZ  : 4.461e+06 (roughly 300 MBytes of memory)
 Factor Ops : 1.125e+08 (less than 1 second per iteration)
 Threads    : 30

                  Objective                Residual
Iter       Primal          Dual         Primal    Dual     Compl     Time
   0  -2.11405087e+16 -1.58516301e+15  6.34e+06 1.56e+04  2.54e+12     6s
   1  -3.21253360e+15 -1.58990992e+15  9.56e+05 4.74e+06  8.37e+11     6s
   2  -1.36162929e+15 -1.27782540e+15  4.03e+05 7.46e+05  2.19e+11     6s
   3  -4.75167627e+14 -1.05034337e+15  1.38e+05 1.95e+05  6.98e+10     7s
   4  -1.10812783e+14 -6.38923009e+14  3.08e+04 4.43e+04  1.62e+10     7s
   5  -3.58665569e+13 -3.93106366e+14  1.01e+04 1.74e+04  5.95e+09     7s
   6  -1.57320964e+13 -2.85055279e+14  4.74e+03 8.76e+03  2.96e+09     8s
   7  -6.71156956e+12 -1.52376083e+14  2.21e+03 1.51e+03  9.54e+08     8s
   8  -7.87703348e+11 -7.11255029e+13  4.79e+02 2.01e+02  2.09e+08     8s
   9   6.71320663e+11 -8.82265276e+12  1.97e+00 2.25e+00  1.41e+07     9s
  10   1.75634745e+11 -1.04553164e+12  1.71e-01 1.46e-01  1.78e+06     9s
  11   6.70048329e+10 -4.16236100e+11  5.15e-02 7.45e-09  7.01e+05     9s
  12   3.17780974e+10 -1.87620839e+11  2.02e-02 1.12e-08  3.18e+05    10s
  13   2.33961018e+10 -1.37977147e+11  1.33e-02 7.45e-09  2.34e+05    10s
  14   1.92503789e+10 -8.47796813e+10  1.04e-02 7.45e-09  1.51e+05    10s
  15   1.95043606e+10 -7.50265067e+10  1.01e-02 1.12e-08  1.37e+05    10s
  16   1.31100814e+10 -1.77783707e+10  3.60e-03 1.12e-08  4.47e+04    11s
  17   9.42070921e+09  2.04762064e+09  9.25e-04 1.12e-08  1.07e+04    11s
  18   8.86219881e+09  3.66313260e+09  6.51e-04 9.31e-09  7.52e+03    11s
  19   8.76974434e+09  4.25149192e+09  6.06e-04 7.45e-09  6.54e+03    12s
  20   8.54968013e+09  5.26009746e+09  4.99e-04 5.59e-09  4.76e+03    12s
  21   8.38043640e+09  5.64053940e+09  4.18e-04 5.59e-09  3.96e+03    12s
  22   8.07333172e+09  6.24943032e+09  2.72e-04 3.73e-09  2.64e+03    13s
  23   7.85538048e+09  6.67206223e+09  1.72e-04 3.73e-09  1.71e+03    13s
  24   7.68619696e+09  6.93811509e+09  9.55e-05 2.79e-09  1.08e+03    13s
  25   7.58327852e+09  7.18215298e+09  5.22e-05 1.86e-09  5.80e+02    14s
  26   7.53531309e+09  7.31280523e+09  3.34e-05 1.86e-09  3.22e+02    14s
  27   7.49341819e+09  7.34680903e+09  1.77e-05 1.86e-09  2.12e+02    14s
  28   7.48189876e+09  7.38377758e+09  1.35e-05 1.86e-09  1.42e+02    15s
  29   7.46896822e+09  7.39917243e+09  9.02e-06 1.86e-09  1.01e+02    15s
  30   7.46195181e+09  7.41297596e+09  6.54e-06 1.86e-09  7.08e+01    15s
  31   7.45259096e+09  7.41719209e+09  3.27e-06 1.86e-09  5.11e+01    16s
  32   7.44687432e+09  7.43408891e+09  1.44e-06 2.79e-09  1.85e+01    16s
  33   7.44351814e+09  7.44060719e+09  3.81e-07 2.79e-09  4.21e+00    16s
  34   7.44272700e+09  7.44159823e+09  1.83e-07 2.79e-09  1.63e+00    17s
  35   7.44237056e+09  7.44198098e+09  2.60e-07 1.86e-09  5.63e-01    17s
  36   7.44223194e+09  7.44210300e+09  4.16e-07 1.86e-09  1.86e-01    17s
  37   7.44218071e+09  7.44215884e+09  1.71e-07 2.79e-09  3.16e-02    17s
  38   7.44216321e+09  7.44216313e+09  3.20e-08 3.73e-09  1.22e-04    18s
  39   7.44216321e+09  7.44216313e+09  5.66e-05 3.73e-09  1.22e-04    18s

Barrier solved model in 39 iterations and 18.10 seconds
Optimal objective 7.44216321e+09

Crossover log...

   76944 DPushes remaining with DInf 0.0000000e+00                18s
    7862 DPushes remaining with DInf 0.0000000e+00                20s
    1158 DPushes remaining with DInf 0.0000000e+00                25s
       0 DPushes remaining with DInf 0.0000000e+00                27s
Warning: Markowitz tolerance tightened to 0.5

  113532 PPushes remaining with PInf 1.8100396e-04                27s
   59034 PPushes remaining with PInf 3.0221531e-02                50s
   41869 PPushes remaining with PInf 4.2879354e-02                63s
   28829 PPushes remaining with PInf 4.3600562e-02                66s
    6010 PPushes remaining with PInf 7.3980385e-02                70s
       0 PPushes remaining with PInf 0.0000000e+00                72s

  Push phase complete: Pinf 0.0000000e+00, Dinf 6.5943454e+07     72s

Iteration    Objective       Primal Inf.    Dual Inf.      Time
  142015    7.4421632e+09   0.000000e+00   6.594345e+07     73s
  142805    7.4421632e+09   0.000000e+00   2.000000e-06     76s
Extra one simplex iteration after uncrush
  142806    7.4421632e+09   0.000000e+00   0.000000e+00     77s

Solved with barrier
Solved in 142806 iterations and 77.18 seconds
Optimal objective  7.442163183e+09
Warning: unscaled primal violation = 0.000872854 and residual = 0.000872854
